c User generated cnf file
p cnf 11 21
10 -8 8 0 
6 11 -1 0 
11 9 -8 0 
10 1 -3 0 
-4 1 7 0 
-9 10 9 0 
-11 4 8 0 
-10 6 1 0 
1 -2 6 0 
1 11 -8 0 
-4 10 7 0 
-3 9 11 0 
2 8 -5 0 
9 -9 7 0 
-10 10 11 0 
6 -3 11 0 
7 3 -4 0 
11 10 -10 0 
6 1 -6 0 
9 -2 7 0 
11 4 -6 0 
